NAME: bip_30_5
TYPE: TSP
COMMENT: bip_30_5
DIMENSION: 30
EDGE_WEIGHT_TYPE: EUC_2D
NODE_COORD_SECTION
1 36 40
2 56 41
3 93 61
4 17 64
5 2 84
6 58 5
7 54 44
8 64 53
9 92 88
10 63 60
11 97 98
12 72 12
13 42 55
14 89 83
15 87 34
16 421 432
17 457 409
18 499 473
19 434 462
20 432 466
21 445 460
22 485 454
23 429 448
24 412 468
25 445 427
26 475 433
27 442 479
28 423 407
29 408 483
30 415 400
